(set-logic HORN)
(set-info :source |
    Benchmark: C_VC
    Output by Princess (http://www.philipp.ruemmer.org/princess.shtml)
|)
(set-info :status unknown)
(declare-fun inv_main17 (Int Int Int Int Int) Bool)
(declare-fun inv_main7 (Int Int Int Int Int) Bool)
(assert (forall ((var0 Int)) (inv_main7 var0 0 0 0 1 ) ) )
(assert (forall ((var0 Int)) (forall ((var1 Int)) (forall ((var2 Int)) (forall ((var3 Int)) (forall ((var4 Int)) (or (not (inv_main17 var0 var1 var4 var3 var2 ) ) (inv_main7 var0 var1 var4 var3 var2 ) ) ) ) ) ) ) )
(assert (forall ((var0 Int)) (forall ((var1 Int)) (forall ((var2 Int)) (forall ((var3 Int)) (forall ((var4 Int)) (or (not (and (inv_main7 var0 var1 var4 var3 var2 ) (and (not (and (<= 0 (+ (+ var3 (* (- 1) var0 ) ) (- 1) ) ) (<= 0 (+ (+ var2 (* (- 1) var0 ) ) (- 1) ) ) ) ) (and (not (<= 0 (+ var0 (* (- 1) var2 ) ) ) ) (not (<= 0 (+ var0 (* (- 1) var3 ) ) ) ) ) ) ) ) (inv_main17 var0 var1 var4 var3 var2 ) ) ) ) ) ) ) )
(assert (forall ((var0 Int)) (forall ((var1 Int)) (forall ((var2 Int)) (forall ((var3 Int)) (forall ((var4 Int)) (or (not (and (inv_main7 var0 var1 var4 var3 var2 ) (and (not (and (<= 0 (+ (+ var3 (* (- 1) var0 ) ) (- 1) ) ) (<= 0 (+ (+ (+ var2 1 ) (* (- 1) var0 ) ) (- 1) ) ) ) ) (and (<= 0 (+ var0 (* (- 1) var2 ) ) ) (not (<= 0 (+ var0 (* (- 1) var3 ) ) ) ) ) ) ) ) (inv_main17 var0 var1 (+ var4 var2 ) var3 (+ var2 1 ) ) ) ) ) ) ) ) )
(assert (forall ((var0 Int)) (forall ((var1 Int)) (forall ((var2 Int)) (forall ((var3 Int)) (forall ((var4 Int)) (or (not (and (inv_main7 var0 var1 var4 var3 var2 ) (and (not (and (<= 0 (+ (+ (+ var3 1 ) (* (- 1) var0 ) ) (- 1) ) ) (<= 0 (+ (+ var2 (* (- 1) var0 ) ) (- 1) ) ) ) ) (and (not (<= 0 (+ var0 (* (- 1) var2 ) ) ) ) (<= 0 (+ var0 (* (- 1) var3 ) ) ) ) ) ) ) (inv_main17 var0 (+ var1 var3 ) var4 (+ var3 1 ) var2 ) ) ) ) ) ) ) )
(assert (forall ((var0 Int)) (forall ((var1 Int)) (forall ((var2 Int)) (forall ((var3 Int)) (forall ((var4 Int)) (or (not (and (inv_main7 var0 var1 var4 var3 var2 ) (and (not (and (<= 0 (+ (+ (+ var3 1 ) (* (- 1) var0 ) ) (- 1) ) ) (<= 0 (+ (+ (+ var2 1 ) (* (- 1) var0 ) ) (- 1) ) ) ) ) (and (<= 0 (+ var0 (* (- 1) var2 ) ) ) (<= 0 (+ var0 (* (- 1) var3 ) ) ) ) ) ) ) (inv_main17 var0 (+ var1 var3 ) (+ var4 var2 ) (+ var3 1 ) (+ var2 1 ) ) ) ) ) ) ) ) )
(assert (forall ((var0 Int)) (forall ((var1 Int)) (forall ((var2 Int)) (forall ((var3 Int)) (forall ((var4 Int)) (not (and (inv_main17 var0 var1 var4 var3 var2 ) (not (= var4 (+ var1 var3 ) ) ) ) ) ) ) ) ) ) )
(check-sat)
